p cnf 320 1086
c p weight 128 -1 0
c p weight -128 1 0
c p weight 130 6.12323399573676603586882014729198302312846062338790031898128063403419218957424163818359375E-17 0
c p weight -130 1 0
c p weight 131 1 0
c p weight -131 1 0
c p weight 132 -1 0
c p weight -132 1 0
c p weight 134 -1 0
c p weight -134 1 0
c p weight 137 -1 0
c p weight -137 1 0
c p weight 140 -1 0
c p weight -140 1 0
c p weight 143 -1 0
c p weight -143 1 0
c p weight 146 -1 0
c p weight -146 1 0
c p weight 149 -1 0
c p weight -149 1 0
c p weight 152 -1 0
c p weight -152 1 0
c p weight 155 -1 0
c p weight -155 1 0
c p weight 158 -1 0
c p weight -158 1 0
c p weight 161 -1 0
c p weight -161 1 0
c p weight 164 -1 0
c p weight -164 1 0
c p weight 167 -1 0
c p weight -167 1 0
c p weight 170 -1 0
c p weight -170 1 0
c p weight 173 -1 0
c p weight -173 1 0
c p weight 176 -1 0
c p weight -176 1 0
c p weight 179 -1 0
c p weight -179 1 0
c p weight 182 -1 0
c p weight -182 1 0
c p weight 185 -1 0
c p weight -185 1 0
c p weight 188 -1 0
c p weight -188 1 0
c p weight 191 -1 0
c p weight -191 1 0
c p weight 194 -1 0
c p weight -194 1 0
c p weight 197 -1 0
c p weight -197 1 0
c p weight 200 -1 0
c p weight -200 1 0
c p weight 203 -1 0
c p weight -203 1 0
c p weight 206 -1 0
c p weight -206 1 0
c p weight 209 -1 0
c p weight -209 1 0
c p weight 212 -1 0
c p weight -212 1 0
c p weight 215 -1 0
c p weight -215 1 0
c p weight 218 -1 0
c p weight -218 1 0
c p weight 221 -1 0
c p weight -221 1 0
c p weight 224 -1 0
c p weight -224 1 0
c p weight 227 -1 0
c p weight -227 1 0
c p weight 230 -1 0
c p weight -230 1 0
c p weight 233 -1 0
c p weight -233 1 0
c p weight 236 -1 0
c p weight -236 1 0
c p weight 239 -1 0
c p weight -239 1 0
c p weight 242 -1 0
c p weight -242 1 0
c p weight 245 -1 0
c p weight -245 1 0
c p weight 248 -1 0
c p weight -248 1 0
c p weight 251 -1 0
c p weight -251 1 0
c p weight 254 -1 0
c p weight -254 1 0
c p weight 257 -1 0
c p weight -257 1 0
c p weight 260 -1 0
c p weight -260 1 0
c p weight 263 -1 0
c p weight -263 1 0
c p weight 266 -1 0
c p weight -266 1 0
c p weight 269 -1 0
c p weight -269 1 0
c p weight 272 -1 0
c p weight -272 1 0
c p weight 275 -1 0
c p weight -275 1 0
c p weight 278 -1 0
c p weight -278 1 0
c p weight 281 -1 0
c p weight -281 1 0
c p weight 284 -1 0
c p weight -284 1 0
c p weight 287 -1 0
c p weight -287 1 0
c p weight 290 -1 0
c p weight -290 1 0
c p weight 293 -1 0
c p weight -293 1 0
c p weight 296 -1 0
c p weight -296 1 0
c p weight 299 -1 0
c p weight -299 1 0
c p weight 302 -1 0
c p weight -302 1 0
c p weight 305 -1 0
c p weight -305 1 0
c p weight 308 -1 0
c p weight -308 1 0
c p weight 311 -1 0
c p weight -311 1 0
c p weight 314 -1 0
c p weight -314 1 0
c p weight 317 -1 0
c p weight -317 1 0
c p weight 320 -1 0
c p weight -320 1 0
-125 0
-123 0
-121 0
-119 0
-117 0
-115 0
-113 0
-111 0
-109 0
-107 0
-105 0
-103 0
-101 0
-99 0
-97 0
-95 0
-93 0
-91 0
-89 0
-87 0
-85 0
-83 0
-81 0
-79 0
-77 0
-75 0
-73 0
-71 0
-69 0
-67 0
-65 0
-63 0
-61 0
-59 0
-57 0
-55 0
-53 0
-51 0
-49 0
-47 0
-45 0
-43 0
-41 0
-39 0
-37 0
-35 0
-33 0
-31 0
-29 0
-27 0
-25 0
-23 0
-21 0
-19 0
-17 0
-15 0
-13 0
-11 0
-9 0
-7 0
-5 0
-3 0
-1 0
127 125 -126 0
127 -125 126 0
-127 125 126 0
-127 -125 -126 0
-128 125 0
-128 126 0
128 -125 -126 0
129 -125 127 0
-129 125 127 0
-130 127 0
129 -130 -125 0
-129 -130 125 0
129 130 125 -127 0
-129 130 -125 -127 0
-131 127 0
129 -131 125 0
-129 -131 -125 0
129 131 -125 -127 0
-129 131 125 -127 0
-132 129 0
-132 127 0
-132 -125 0
132 -129 125 -127 0
133 129 -127 0
133 -129 127 0
-133 129 127 0
-133 -129 -127 0
-134 129 0
-134 127 0
134 -129 -127 0
135 129 -123 0
135 -129 123 0
-135 129 123 0
-135 -129 -123 0
136 133 -124 0
136 -133 124 0
-136 133 124 0
-136 -133 -124 0
-137 129 0
-137 124 0
-137 123 -133 0
-137 -123 133 0
137 -129 123 133 -124 0
137 -129 -123 -133 -124 0
138 135 -121 0
138 -135 121 0
-138 135 121 0
-138 -135 -121 0
139 124 -122 0
139 -124 122 0
-139 124 122 0
-139 -124 -122 0
-140 135 0
-140 122 0
-140 121 -124 0
-140 -121 124 0
140 -135 121 124 -122 0
140 -135 -121 -124 -122 0
141 138 -119 0
141 -138 119 0
-141 138 119 0
-141 -138 -119 0
142 122 -120 0
142 -122 120 0
-142 122 120 0
-142 -122 -120 0
-143 138 0
-143 120 0
-143 119 -122 0
-143 -119 122 0
143 -138 119 122 -120 0
143 -138 -119 -122 -120 0
144 141 -117 0
144 -141 117 0
-144 141 117 0
-144 -141 -117 0
145 120 -118 0
145 -120 118 0
-145 120 118 0
-145 -120 -118 0
-146 141 0
-146 118 0
-146 117 -120 0
-146 -117 120 0
146 -141 117 120 -118 0
146 -141 -117 -120 -118 0
147 144 -115 0
147 -144 115 0
-147 144 115 0
-147 -144 -115 0
148 118 -116 0
148 -118 116 0
-148 118 116 0
-148 -118 -116 0
-149 144 0
-149 116 0
-149 115 -118 0
-149 -115 118 0
149 -144 115 118 -116 0
149 -144 -115 -118 -116 0
150 147 -113 0
150 -147 113 0
-150 147 113 0
-150 -147 -113 0
151 116 -114 0
151 -116 114 0
-151 116 114 0
-151 -116 -114 0
-152 147 0
-152 114 0
-152 113 -116 0
-152 -113 116 0
152 -147 113 116 -114 0
152 -147 -113 -116 -114 0
153 150 -111 0
153 -150 111 0
-153 150 111 0
-153 -150 -111 0
154 114 -112 0
154 -114 112 0
-154 114 112 0
-154 -114 -112 0
-155 150 0
-155 112 0
-155 111 -114 0
-155 -111 114 0
155 -150 111 114 -112 0
155 -150 -111 -114 -112 0
156 153 -109 0
156 -153 109 0
-156 153 109 0
-156 -153 -109 0
157 112 -110 0
157 -112 110 0
-157 112 110 0
-157 -112 -110 0
-158 153 0
-158 110 0
-158 109 -112 0
-158 -109 112 0
158 -153 109 112 -110 0
158 -153 -109 -112 -110 0
159 156 -107 0
159 -156 107 0
-159 156 107 0
-159 -156 -107 0
160 110 -108 0
160 -110 108 0
-160 110 108 0
-160 -110 -108 0
-161 156 0
-161 108 0
-161 107 -110 0
-161 -107 110 0
161 -156 107 110 -108 0
161 -156 -107 -110 -108 0
162 159 -105 0
162 -159 105 0
-162 159 105 0
-162 -159 -105 0
163 108 -106 0
163 -108 106 0
-163 108 106 0
-163 -108 -106 0
-164 159 0
-164 106 0
-164 105 -108 0
-164 -105 108 0
164 -159 105 108 -106 0
164 -159 -105 -108 -106 0
165 162 -103 0
165 -162 103 0
-165 162 103 0
-165 -162 -103 0
166 106 -104 0
166 -106 104 0
-166 106 104 0
-166 -106 -104 0
-167 162 0
-167 104 0
-167 103 -106 0
-167 -103 106 0
167 -162 103 106 -104 0
167 -162 -103 -106 -104 0
168 165 -101 0
168 -165 101 0
-168 165 101 0
-168 -165 -101 0
169 104 -102 0
169 -104 102 0
-169 104 102 0
-169 -104 -102 0
-170 165 0
-170 102 0
-170 101 -104 0
-170 -101 104 0
170 -165 101 104 -102 0
170 -165 -101 -104 -102 0
171 168 -99 0
171 -168 99 0
-171 168 99 0
-171 -168 -99 0
172 102 -100 0
172 -102 100 0
-172 102 100 0
-172 -102 -100 0
-173 168 0
-173 100 0
-173 99 -102 0
-173 -99 102 0
173 -168 99 102 -100 0
173 -168 -99 -102 -100 0
174 171 -97 0
174 -171 97 0
-174 171 97 0
-174 -171 -97 0
175 100 -98 0
175 -100 98 0
-175 100 98 0
-175 -100 -98 0
-176 171 0
-176 98 0
-176 97 -100 0
-176 -97 100 0
176 -171 97 100 -98 0
176 -171 -97 -100 -98 0
177 174 -95 0
177 -174 95 0
-177 174 95 0
-177 -174 -95 0
178 98 -96 0
178 -98 96 0
-178 98 96 0
-178 -98 -96 0
-179 174 0
-179 96 0
-179 95 -98 0
-179 -95 98 0
179 -174 95 98 -96 0
179 -174 -95 -98 -96 0
180 177 -93 0
180 -177 93 0
-180 177 93 0
-180 -177 -93 0
181 96 -94 0
181 -96 94 0
-181 96 94 0
-181 -96 -94 0
-182 177 0
-182 94 0
-182 93 -96 0
-182 -93 96 0
182 -177 93 96 -94 0
182 -177 -93 -96 -94 0
183 180 -91 0
183 -180 91 0
-183 180 91 0
-183 -180 -91 0
184 94 -92 0
184 -94 92 0
-184 94 92 0
-184 -94 -92 0
-185 180 0
-185 92 0
-185 91 -94 0
-185 -91 94 0
185 -180 91 94 -92 0
185 -180 -91 -94 -92 0
186 183 -89 0
186 -183 89 0
-186 183 89 0
-186 -183 -89 0
187 92 -90 0
187 -92 90 0
-187 92 90 0
-187 -92 -90 0
-188 183 0
-188 90 0
-188 89 -92 0
-188 -89 92 0
188 -183 89 92 -90 0
188 -183 -89 -92 -90 0
189 186 -87 0
189 -186 87 0
-189 186 87 0
-189 -186 -87 0
190 90 -88 0
190 -90 88 0
-190 90 88 0
-190 -90 -88 0
-191 186 0
-191 88 0
-191 87 -90 0
-191 -87 90 0
191 -186 87 90 -88 0
191 -186 -87 -90 -88 0
192 189 -85 0
192 -189 85 0
-192 189 85 0
-192 -189 -85 0
193 88 -86 0
193 -88 86 0
-193 88 86 0
-193 -88 -86 0
-194 189 0
-194 86 0
-194 85 -88 0
-194 -85 88 0
194 -189 85 88 -86 0
194 -189 -85 -88 -86 0
195 192 -83 0
195 -192 83 0
-195 192 83 0
-195 -192 -83 0
196 86 -84 0
196 -86 84 0
-196 86 84 0
-196 -86 -84 0
-197 192 0
-197 84 0
-197 83 -86 0
-197 -83 86 0
197 -192 83 86 -84 0
197 -192 -83 -86 -84 0
198 195 -81 0
198 -195 81 0
-198 195 81 0
-198 -195 -81 0
199 84 -82 0
199 -84 82 0
-199 84 82 0
-199 -84 -82 0
-200 195 0
-200 82 0
-200 81 -84 0
-200 -81 84 0
200 -195 81 84 -82 0
200 -195 -81 -84 -82 0
201 198 -79 0
201 -198 79 0
-201 198 79 0
-201 -198 -79 0
202 82 -80 0
202 -82 80 0
-202 82 80 0
-202 -82 -80 0
-203 198 0
-203 80 0
-203 79 -82 0
-203 -79 82 0
203 -198 79 82 -80 0
203 -198 -79 -82 -80 0
204 201 -77 0
204 -201 77 0
-204 201 77 0
-204 -201 -77 0
205 80 -78 0
205 -80 78 0
-205 80 78 0
-205 -80 -78 0
-206 201 0
-206 78 0
-206 77 -80 0
-206 -77 80 0
206 -201 77 80 -78 0
206 -201 -77 -80 -78 0
207 204 -75 0
207 -204 75 0
-207 204 75 0
-207 -204 -75 0
208 78 -76 0
208 -78 76 0
-208 78 76 0
-208 -78 -76 0
-209 204 0
-209 76 0
-209 75 -78 0
-209 -75 78 0
209 -204 75 78 -76 0
209 -204 -75 -78 -76 0
210 207 -73 0
210 -207 73 0
-210 207 73 0
-210 -207 -73 0
211 76 -74 0
211 -76 74 0
-211 76 74 0
-211 -76 -74 0
-212 207 0
-212 74 0
-212 73 -76 0
-212 -73 76 0
212 -207 73 76 -74 0
212 -207 -73 -76 -74 0
213 210 -71 0
213 -210 71 0
-213 210 71 0
-213 -210 -71 0
214 74 -72 0
214 -74 72 0
-214 74 72 0
-214 -74 -72 0
-215 210 0
-215 72 0
-215 71 -74 0
-215 -71 74 0
215 -210 71 74 -72 0
215 -210 -71 -74 -72 0
216 213 -69 0
216 -213 69 0
-216 213 69 0
-216 -213 -69 0
217 72 -70 0
217 -72 70 0
-217 72 70 0
-217 -72 -70 0
-218 213 0
-218 70 0
-218 69 -72 0
-218 -69 72 0
218 -213 69 72 -70 0
218 -213 -69 -72 -70 0
219 216 -67 0
219 -216 67 0
-219 216 67 0
-219 -216 -67 0
220 70 -68 0
220 -70 68 0
-220 70 68 0
-220 -70 -68 0
-221 216 0
-221 68 0
-221 67 -70 0
-221 -67 70 0
221 -216 67 70 -68 0
221 -216 -67 -70 -68 0
222 219 -65 0
222 -219 65 0
-222 219 65 0
-222 -219 -65 0
223 68 -66 0
223 -68 66 0
-223 68 66 0
-223 -68 -66 0
-224 219 0
-224 66 0
-224 65 -68 0
-224 -65 68 0
224 -219 65 68 -66 0
224 -219 -65 -68 -66 0
225 222 -63 0
225 -222 63 0
-225 222 63 0
-225 -222 -63 0
226 66 -64 0
226 -66 64 0
-226 66 64 0
-226 -66 -64 0
-227 222 0
-227 64 0
-227 63 -66 0
-227 -63 66 0
227 -222 63 66 -64 0
227 -222 -63 -66 -64 0
228 225 -61 0
228 -225 61 0
-228 225 61 0
-228 -225 -61 0
229 64 -62 0
229 -64 62 0
-229 64 62 0
-229 -64 -62 0
-230 225 0
-230 62 0
-230 61 -64 0
-230 -61 64 0
230 -225 61 64 -62 0
230 -225 -61 -64 -62 0
231 228 -59 0
231 -228 59 0
-231 228 59 0
-231 -228 -59 0
232 62 -60 0
232 -62 60 0
-232 62 60 0
-232 -62 -60 0
-233 228 0
-233 60 0
-233 59 -62 0
-233 -59 62 0
233 -228 59 62 -60 0
233 -228 -59 -62 -60 0
234 231 -57 0
234 -231 57 0
-234 231 57 0
-234 -231 -57 0
235 60 -58 0
235 -60 58 0
-235 60 58 0
-235 -60 -58 0
-236 231 0
-236 58 0
-236 57 -60 0
-236 -57 60 0
236 -231 57 60 -58 0
236 -231 -57 -60 -58 0
237 234 -55 0
237 -234 55 0
-237 234 55 0
-237 -234 -55 0
238 58 -56 0
238 -58 56 0
-238 58 56 0
-238 -58 -56 0
-239 234 0
-239 56 0
-239 55 -58 0
-239 -55 58 0
239 -234 55 58 -56 0
239 -234 -55 -58 -56 0
240 237 -53 0
240 -237 53 0
-240 237 53 0
-240 -237 -53 0
241 56 -54 0
241 -56 54 0
-241 56 54 0
-241 -56 -54 0
-242 237 0
-242 54 0
-242 53 -56 0
-242 -53 56 0
242 -237 53 56 -54 0
242 -237 -53 -56 -54 0
243 240 -51 0
243 -240 51 0
-243 240 51 0
-243 -240 -51 0
244 54 -52 0
244 -54 52 0
-244 54 52 0
-244 -54 -52 0
-245 240 0
-245 52 0
-245 51 -54 0
-245 -51 54 0
245 -240 51 54 -52 0
245 -240 -51 -54 -52 0
246 243 -49 0
246 -243 49 0
-246 243 49 0
-246 -243 -49 0
247 52 -50 0
247 -52 50 0
-247 52 50 0
-247 -52 -50 0
-248 243 0
-248 50 0
-248 49 -52 0
-248 -49 52 0
248 -243 49 52 -50 0
248 -243 -49 -52 -50 0
249 246 -47 0
249 -246 47 0
-249 246 47 0
-249 -246 -47 0
250 50 -48 0
250 -50 48 0
-250 50 48 0
-250 -50 -48 0
-251 246 0
-251 48 0
-251 47 -50 0
-251 -47 50 0
251 -246 47 50 -48 0
251 -246 -47 -50 -48 0
252 249 -45 0
252 -249 45 0
-252 249 45 0
-252 -249 -45 0
253 48 -46 0
253 -48 46 0
-253 48 46 0
-253 -48 -46 0
-254 249 0
-254 46 0
-254 45 -48 0
-254 -45 48 0
254 -249 45 48 -46 0
254 -249 -45 -48 -46 0
255 252 -43 0
255 -252 43 0
-255 252 43 0
-255 -252 -43 0
256 46 -44 0
256 -46 44 0
-256 46 44 0
-256 -46 -44 0
-257 252 0
-257 44 0
-257 43 -46 0
-257 -43 46 0
257 -252 43 46 -44 0
257 -252 -43 -46 -44 0
258 255 -41 0
258 -255 41 0
-258 255 41 0
-258 -255 -41 0
259 44 -42 0
259 -44 42 0
-259 44 42 0
-259 -44 -42 0
-260 255 0
-260 42 0
-260 41 -44 0
-260 -41 44 0
260 -255 41 44 -42 0
260 -255 -41 -44 -42 0
261 258 -39 0
261 -258 39 0
-261 258 39 0
-261 -258 -39 0
262 42 -40 0
262 -42 40 0
-262 42 40 0
-262 -42 -40 0
-263 258 0
-263 40 0
-263 39 -42 0
-263 -39 42 0
263 -258 39 42 -40 0
263 -258 -39 -42 -40 0
264 261 -37 0
264 -261 37 0
-264 261 37 0
-264 -261 -37 0
265 40 -38 0
265 -40 38 0
-265 40 38 0
-265 -40 -38 0
-266 261 0
-266 38 0
-266 37 -40 0
-266 -37 40 0
266 -261 37 40 -38 0
266 -261 -37 -40 -38 0
267 264 -35 0
267 -264 35 0
-267 264 35 0
-267 -264 -35 0
268 38 -36 0
268 -38 36 0
-268 38 36 0
-268 -38 -36 0
-269 264 0
-269 36 0
-269 35 -38 0
-269 -35 38 0
269 -264 35 38 -36 0
269 -264 -35 -38 -36 0
270 267 -33 0
270 -267 33 0
-270 267 33 0
-270 -267 -33 0
271 36 -34 0
271 -36 34 0
-271 36 34 0
-271 -36 -34 0
-272 267 0
-272 34 0
-272 33 -36 0
-272 -33 36 0
272 -267 33 36 -34 0
272 -267 -33 -36 -34 0
273 270 -31 0
273 -270 31 0
-273 270 31 0
-273 -270 -31 0
274 34 -32 0
274 -34 32 0
-274 34 32 0
-274 -34 -32 0
-275 270 0
-275 32 0
-275 31 -34 0
-275 -31 34 0
275 -270 31 34 -32 0
275 -270 -31 -34 -32 0
276 273 -29 0
276 -273 29 0
-276 273 29 0
-276 -273 -29 0
277 32 -30 0
277 -32 30 0
-277 32 30 0
-277 -32 -30 0
-278 273 0
-278 30 0
-278 29 -32 0
-278 -29 32 0
278 -273 29 32 -30 0
278 -273 -29 -32 -30 0
279 276 -27 0
279 -276 27 0
-279 276 27 0
-279 -276 -27 0
280 30 -28 0
280 -30 28 0
-280 30 28 0
-280 -30 -28 0
-281 276 0
-281 28 0
-281 27 -30 0
-281 -27 30 0
281 -276 27 30 -28 0
281 -276 -27 -30 -28 0
282 279 -25 0
282 -279 25 0
-282 279 25 0
-282 -279 -25 0
283 28 -26 0
283 -28 26 0
-283 28 26 0
-283 -28 -26 0
-284 279 0
-284 26 0
-284 25 -28 0
-284 -25 28 0
284 -279 25 28 -26 0
284 -279 -25 -28 -26 0
285 282 -23 0
285 -282 23 0
-285 282 23 0
-285 -282 -23 0
286 26 -24 0
286 -26 24 0
-286 26 24 0
-286 -26 -24 0
-287 282 0
-287 24 0
-287 23 -26 0
-287 -23 26 0
287 -282 23 26 -24 0
287 -282 -23 -26 -24 0
288 285 -21 0
288 -285 21 0
-288 285 21 0
-288 -285 -21 0
289 24 -22 0
289 -24 22 0
-289 24 22 0
-289 -24 -22 0
-290 285 0
-290 22 0
-290 21 -24 0
-290 -21 24 0
290 -285 21 24 -22 0
290 -285 -21 -24 -22 0
291 288 -19 0
291 -288 19 0
-291 288 19 0
-291 -288 -19 0
292 22 -20 0
292 -22 20 0
-292 22 20 0
-292 -22 -20 0
-293 288 0
-293 20 0
-293 19 -22 0
-293 -19 22 0
293 -288 19 22 -20 0
293 -288 -19 -22 -20 0
294 291 -17 0
294 -291 17 0
-294 291 17 0
-294 -291 -17 0
295 20 -18 0
295 -20 18 0
-295 20 18 0
-295 -20 -18 0
-296 291 0
-296 18 0
-296 17 -20 0
-296 -17 20 0
296 -291 17 20 -18 0
296 -291 -17 -20 -18 0
297 294 -15 0
297 -294 15 0
-297 294 15 0
-297 -294 -15 0
298 18 -16 0
298 -18 16 0
-298 18 16 0
-298 -18 -16 0
-299 294 0
-299 16 0
-299 15 -18 0
-299 -15 18 0
299 -294 15 18 -16 0
299 -294 -15 -18 -16 0
300 297 -13 0
300 -297 13 0
-300 297 13 0
-300 -297 -13 0
301 16 -14 0
301 -16 14 0
-301 16 14 0
-301 -16 -14 0
-302 297 0
-302 14 0
-302 13 -16 0
-302 -13 16 0
302 -297 13 16 -14 0
302 -297 -13 -16 -14 0
303 300 -11 0
303 -300 11 0
-303 300 11 0
-303 -300 -11 0
304 14 -12 0
304 -14 12 0
-304 14 12 0
-304 -14 -12 0
-305 300 0
-305 12 0
-305 11 -14 0
-305 -11 14 0
305 -300 11 14 -12 0
305 -300 -11 -14 -12 0
306 303 -9 0
306 -303 9 0
-306 303 9 0
-306 -303 -9 0
307 12 -10 0
307 -12 10 0
-307 12 10 0
-307 -12 -10 0
-308 303 0
-308 10 0
-308 9 -12 0
-308 -9 12 0
308 -303 9 12 -10 0
308 -303 -9 -12 -10 0
309 306 -7 0
309 -306 7 0
-309 306 7 0
-309 -306 -7 0
310 10 -8 0
310 -10 8 0
-310 10 8 0
-310 -10 -8 0
-311 306 0
-311 8 0
-311 7 -10 0
-311 -7 10 0
311 -306 7 10 -8 0
311 -306 -7 -10 -8 0
312 309 -5 0
312 -309 5 0
-312 309 5 0
-312 -309 -5 0
313 8 -6 0
313 -8 6 0
-313 8 6 0
-313 -8 -6 0
-314 309 0
-314 6 0
-314 5 -8 0
-314 -5 8 0
314 -309 5 8 -6 0
314 -309 -5 -8 -6 0
315 312 -3 0
315 -312 3 0
-315 312 3 0
-315 -312 -3 0
316 6 -4 0
316 -6 4 0
-316 6 4 0
-316 -6 -4 0
-317 312 0
-317 4 0
-317 3 -6 0
-317 -3 6 0
317 -312 3 6 -4 0
317 -312 -3 -6 -4 0
318 315 -1 0
318 -315 1 0
-318 315 1 0
-318 -315 -1 0
319 4 -2 0
319 -4 2 0
-319 4 2 0
-319 -4 -2 0
-320 315 0
-320 2 0
-320 1 -4 0
-320 -1 4 0
320 -315 1 4 -2 0
320 -315 -1 -4 -2 0
-318 0
-315 0
-319 0
-312 0
-316 0
-309 0
-313 0
-306 0
-310 0
-303 0
-307 0
-300 0
-304 0
-297 0
-301 0
-294 0
-298 0
-291 0
-295 0
-288 0
-292 0
-285 0
-289 0
-282 0
-286 0
-279 0
-283 0
-276 0
-280 0
-273 0
-277 0
-270 0
-274 0
-267 0
-271 0
-264 0
-268 0
-261 0
-265 0
-258 0
-262 0
-255 0
-259 0
-252 0
-256 0
-249 0
-253 0
-246 0
-250 0
-243 0
-247 0
-240 0
-244 0
-237 0
-241 0
-234 0
-238 0
-231 0
-235 0
-228 0
-232 0
-225 0
-229 0
-222 0
-226 0
-219 0
-223 0
-216 0
-220 0
-213 0
-217 0
-210 0
-214 0
-207 0
-211 0
-204 0
-208 0
-201 0
-205 0
-198 0
-202 0
-195 0
-199 0
-192 0
-196 0
-189 0
-193 0
-186 0
-190 0
-183 0
-187 0
-180 0
-184 0
-177 0
-181 0
-174 0
-178 0
-171 0
-175 0
-168 0
-172 0
-165 0
-169 0
-162 0
-166 0
-159 0
-163 0
-156 0
-160 0
-153 0
-157 0
-150 0
-154 0
-147 0
-151 0
-144 0
-148 0
-141 0
-145 0
-138 0
-142 0
-135 0
-139 0
-129 0
-136 0
